
Gurobi 7.5.2 (linux64) logging started Sat Jul  7 16:01:56 2018

Changed value of parameter LogFile to result/ilp/simNo_4-n_100-m_40-s_4-minVAF_0.05-cov_10000-k_2-fn_0.25-fp_0.0001-na_0.15.ILP.gurobiSolverLog
   Prev: gurobi.log  Default: 
Changed value of parameter TimeLimit to 86400.0
   Prev: 1e+100  Min: 0.0  Max: 1e+100  Default: 1e+100
Optimize a model with 639293 rows, 10765 columns and 1940420 nonzeros
Variable types: 0 continuous, 10765 integer (10765 binary)
Coefficient statistics:
  Matrix range     [4e-04, 4e+00]
  Objective range  [9e-01, 3e+01]
  Bounds range     [1e+00, 1e+00]
  RHS range        [3e-01, 2e+00]
Found heuristic solution: objective -15716.08594
Presolve removed 125826 rows and 999 columns (presolve time = 5s) ...
Presolve removed 126380 rows and 999 columns (presolve time = 13s) ...
Presolve removed 181780 rows and 1553 columns (presolve time = 15s) ...
Presolve removed 181780 rows and 1553 columns
Presolve time: 19.23s
Presolved: 457513 rows, 9212 columns, 1375912 nonzeros
Variable types: 0 continuous, 9212 integer (9212 binary)
Presolved: 9212 rows, 466725 columns, 1385124 nonzeros

Presolve removed 9212 rows and 466725 columns

Root simplex log...

Iteration    Objective       Primal Inf.    Dual Inf.      Time
       0    5.0691348e+01   0.000000e+00   8.056300e+04     24s
   13529   -1.8013328e+02   0.000000e+00   5.174670e+05     25s
   30610   -2.3918873e+02   0.000000e+00   5.653551e+05     30s
   44417   -2.6752355e+02   0.000000e+00   2.099091e+05     35s
   58165   -2.9586530e+02   0.000000e+00   4.930443e+05     40s
   71925   -3.1556759e+02   0.000000e+00   5.896427e+04     45s
   74346   -3.1789314e+02   0.000000e+00   0.000000e+00     47s
   74346   -3.1789314e+02   0.000000e+00   0.000000e+00     48s

Root relaxation: objective -3.178931e+02, 74346 iterations, 26.75 seconds
Total elapsed time = 153.16s
Total elapsed time = 335.59s
Total elapsed time = 432.79s

    Nodes    |    Current Node    |     Objective Bounds      |     Work
 Expl Unexpl |  Obj  Depth IntInf | Incumbent    BestBd   Gap | It/Node Time

     0     0 -317.89314    0 1474 -15716.086 -317.89314  98.0%     -  450s
H    0     0                    -424.8915334 -317.89314  25.2%     -  453s
H    0     0                    -414.1469248 -317.89314  23.2%     -  455s
     0     0 -319.68391    0 1493 -414.14692 -319.68391  22.8%     -  585s
H    0     0                    -401.6115482 -319.68391  20.4%     -  602s
     0     0 -319.68391    0 1500 -401.61155 -319.68391  20.4%     -  605s
     0     0 -321.92237    0 1479 -401.61155 -321.92237  19.8%     - 38409s
H    0     0                    -391.7623236 -321.92237  17.8%     - 38416s
     0     0 -321.92237    0 1547 -391.76232 -321.92237  17.8%     - 38429s
H    0     0                    -383.7038672 -321.92237  16.1%     - 38438s
     0     0 -321.92237    0 1547 -383.70387 -321.92237  16.1%     - 38439s
     0     0 -322.81775    0 1484 -383.70387 -322.81775  15.9%     - 43817s
     0     0 -322.81775    0 1485 -383.70387 -322.81775  15.9%     - 43843s
     0     0 -323.48929    0 1491 -383.70387 -323.48929  15.7%     - 46089s
H    0     0                    -373.8546427 -323.48929  13.5%     - 46121s
     0     0 -323.48929    0 1499 -373.85464 -323.48929  13.5%     - 46125s
     0     0 -324.60852    0 1579 -373.85464 -324.60852  13.2%     - 55930s
     0     0 -324.60852    0 1580 -373.85464 -324.60852  13.2%     - 55973s
     0     0 -325.05621    0 1530 -373.85464 -325.05621  13.1%     - 57666s
H    0     0                    -371.1684906 -325.05621  12.4%     - 57727s
     0     0 -325.28006    0 1534 -371.16849 -325.28006  12.4%     - 57924s
     0     0 -325.32483    0 1534 -371.16849 -325.32483  12.4%     - 57971s
     0     0 -325.32483    0 1538 -371.16849 -325.32483  12.4%     - 57976s
     0     0 -326.92160    0 1521 -371.16849 -326.92160  11.9%     - 63871s
     0     0 -327.07083    0 1521 -371.16849 -327.07083  11.9%     - 64393s
     0     0 -327.07083    0 1517 -371.16849 -327.07083  11.9%     - 64399s
     0     0 -327.07083    0 1518 -371.16849 -327.07083  11.9%     - 64416s
     0     0 -327.07083    0 1512 -371.16849 -327.07083  11.9%     - 64697s
     0     0 -327.51852    0 1583 -371.16849 -327.51852  11.8%     - 76711s
     0     0 -327.51852    0 1598 -371.16849 -327.51852  11.8%     - 76835s
     0     0 -328.05575    0 1599 -371.16849 -328.05575  11.6%     - 77384s
     0     0 -328.19006    0 1607 -371.16849 -328.19006  11.6%     - 77629s
     0     0 -328.20498    0 1605 -371.16849 -328.20498  11.6%     - 77648s
     0     0 -328.23890    0 1603 -371.16849 -328.23890  11.6%     - 77663s
     0     0 -328.23890    0 1605 -371.16849 -328.23890  11.6%     - 77668s
     0     0 -329.68236    0 1528 -371.16849 -329.68236  11.2%     - 81533s
     0     0 -329.77830    0 1538 -371.16849 -329.77830  11.2%     - 81757s
     0     0 -329.79429    0 1535 -371.16849 -329.79429  11.1%     - 81775s
     0     0 -329.80495    0 1523 -371.16849 -329.80495  11.1%     - 81790s
     0     0 -329.80495    0 1520 -371.16849 -329.80495  11.1%     - 81796s
     0     0          -    0      -371.16849 -329.80495  11.1%     - 86400s

Cutting planes:
  Gomory: 5
  Zero half: 255

Explored 1 nodes (2068047 simplex iterations) in 86400.40 seconds
Thread count was 1 (of 80 available processors)

Solution count 8: -371.168 -373.855 -383.704 ... -15716.1

Time limit reached
Best objective -3.711684905539e+02, best bound -3.298049453801e+02, gap 11.1441%
